min:47x1+49x2+45x3+42x4+48x5 ;


6x1+12x2+20x3+14x4+15x5+2x6+32x7<45;
125x1+150x2+200x3+40x4+40x5+20x6+100x7<420;

x1+x2-x3>0;
x4+x5<1;
x2-x6>0;
x1+x2+x3+x4+x5+x6+x7>3;

0<=x1<=1;
0<=x2<=1;
0<=x3<=1;
/* onödigt med "boundsen" ovan men för att visa hur man kan skriva ...*/

bin x1, x2, x3, x4, x5, x6, x7;
